sifdecoder -A pc64.lnx.gfo -st   HS112

 Problem name: HS112

 Double precision version will be formed

 The objective function uses 1 nonlinear group
 
 There are 3 linear equality constraints
 
 There are 10 variables bounded only from below 
 
 
 File successfully decoded
 CUTEST: tools (double precision version) compiled successfully
 CUTEst: ipopt (double precision version) compiled successfully

******************************************************************************
This program contains Ipopt, a library for large-scale nonlinear optimization.
 Ipopt is released as open source code under the Eclipse Public License (EPL).
         For more information visit http://projects.coin-or.org/Ipopt
******************************************************************************

This is Ipopt version trunk, running with linear solver ma57.

Number of nonzeros in equality constraint Jacobian...:       14
Number of nonzeros in inequality constraint Jacobian.:        0
Number of nonzeros in Lagrangian Hessian.............:       55

Reallocating memory for MA57: lfact (386)
Total number of variables............................:       10
                     variables with only lower bounds:       10
                variables with lower and upper bounds:        0
                     variables with only upper bounds:        0
Total number of equality constraints.................:        3
Total number of inequality constraints...............:        0
        inequality constraints with only lower bounds:        0
   inequality constraints with lower and upper bounds:        0
        inequality constraints with only upper bounds:        0

iter    objective    inf_pr   inf_du lg(mu)  ||d||  lg(rg) alpha_du alpha_pr  ls
   0 -2.0960285e+01 1.30e+00 4.03e+00  -1.0 0.00e+00    -  0.00e+00 0.00e+00   0
   1 -4.6880012e+01 2.50e-16 3.46e+00  -1.0 3.07e-01    -  3.23e-01 1.00e+00f  1
   2 -4.7499174e+01 5.55e-17 4.09e+00  -1.0 2.58e-01    -  1.00e+00 6.94e-01f  1
   3 -4.7479043e+01 1.94e-16 3.35e+01  -1.0 2.85e-02    -  1.00e+00 1.00e+00f  1
   4 -4.7477784e+01 8.33e-17 3.81e-05  -1.0 1.14e-03    -  1.00e+00 1.00e+00f  1
   5 -4.7726844e+01 9.02e-17 7.08e-01  -2.5 1.21e-01    -  8.53e-01 1.00e+00f  1
   6 -4.7753396e+01 1.80e-16 1.67e-01  -2.5 3.53e-02    -  1.00e+00 1.00e+00f  1
   7 -4.7758069e+01 6.94e-17 5.85e-02  -2.5 6.35e-03    -  1.00e+00 1.00e+00f  1
   8 -4.7758526e+01 2.50e-16 2.16e-03  -2.5 2.84e-04    -  1.00e+00 1.00e+00f  1
   9 -4.7760906e+01 2.08e-16 2.13e-01  -3.8 6.82e-03    -  1.00e+00 1.00e+00f  1
iter    objective    inf_pr   inf_du lg(mu)  ||d||  lg(rg) alpha_du alpha_pr  ls
  10 -4.7761050e+01 1.39e-17 2.47e-02  -3.8 2.88e-04    -  1.00e+00 1.00e+00f  1
  11 -4.7761069e+01 1.11e-16 2.27e-03  -3.8 5.88e-05    -  1.00e+00 1.00e+00f  1
  12 -4.7761070e+01 5.55e-17 6.06e-06  -3.8 2.90e-06    -  1.00e+00 1.00e+00h  1
  13 -4.7761091e+01 8.33e-17 1.28e-02  -5.7 4.14e-04    -  1.00e+00 1.00e+00f  1
  14 -4.7761091e+01 6.94e-17 9.73e-05  -5.7 9.79e-06    -  1.00e+00 1.00e+00f  1
  15 -4.7761091e+01 1.39e-16 3.86e-08  -5.7 1.93e-07    -  1.00e+00 1.00e+00h  1
  16 -4.7761091e+01 2.50e-16 3.51e-06  -8.6 5.23e-06    -  1.00e+00 1.00e+00h  1
  17 -4.7761091e+01 5.55e-17 6.23e-12  -8.6 2.44e-09    -  1.00e+00 1.00e+00h  1

Number of Iterations....: 17

                                   (scaled)                 (unscaled)
Objective...............:  -4.7761090859365858e+01   -4.7761090859365858e+01
Dual infeasibility......:   6.2347909648275248e-12    6.2347909648275248e-12
Constraint violation....:   5.5511151231257827e-17    5.5511151231257827e-17
Complementarity.........:   2.5059207486463377e-09    2.5059207486463377e-09
Overall NLP error.......:   2.5059207486463377e-09    2.5059207486463377e-09


Number of objective function evaluations             = 18
Number of objective gradient evaluations             = 18
Number of equality constraint evaluations            = 18
Number of inequality constraint evaluations          = 0
Number of equality constraint Jacobian evaluations   = 18
Number of inequality constraint Jacobian evaluations = 0
Number of Lagrangian Hessian evaluations             = 17
Total CPU secs in IPOPT (w/o function evaluations)   =      0.005
Total CPU secs in NLP function evaluations           =      0.000

EXIT: Optimal Solution Found.

************************ CUTEst statistics ************************


 Package used            :  IPOPT
 Problem                 :  HS112     
 # variables             =              10
 # constraints           =               3
 # objective functions   =        0.3700000E+02
 # objective gradients   =        0.1900000E+02
 # objective Hessians    =        0.1800000E+02
 # Hessian-vector prdct  =        0.0000000E+00
 # constraints functions =        0.3800000E+02
 # constraints gradients =        0.2000000E+02
 # constraints Hessians  =        0.1800000E+02
 Exit code               =               0
 Final f                 =       -4.7761090859365858D+01
 Bounds feasibility      =        0.0000000000000000D+00
 Set up time             =            0.00 seconds
 Solve time              =            0.09 seconds


******************************************************************

